p cnf 60 482
1 2 3 0
4 5 6 0
7 8 9 0
10 11 12 0
13 14 15 0
16 17 18 0
19 20 21 0
22 23 24 0
25 26 27 0
28 29 30 0
31 32 33 0
34 35 36 0
37 38 39 0
40 41 42 0
43 44 45 0
46 47 48 0
49 50 51 0
52 53 54 0
55 56 57 0
58 59 60 0
-1 -2 0
-1 -3 0
-2 -3 0
-4 -5 0
-4 -6 0
-5 -6 0
-7 -8 0
-7 -9 0
-8 -9 0
-10 -11 0
-10 -12 0
-11 -12 0
-13 -14 0
-13 -15 0
-14 -15 0
-16 -17 0
-16 -18 0
-17 -18 0
-19 -20 0
-19 -21 0
-20 -21 0
-22 -23 0
-22 -24 0
-23 -24 0
-25 -26 0
-25 -27 0
-26 -27 0
-28 -29 0
-28 -30 0
-29 -30 0
-31 -32 0
-31 -33 0
-32 -33 0
-34 -35 0
-34 -36 0
-35 -36 0
-37 -38 0
-37 -39 0
-38 -39 0
-40 -41 0
-40 -42 0
-41 -42 0
-43 -44 0
-43 -45 0
-44 -45 0
-46 -47 0
-46 -48 0
-47 -48 0
-49 -50 0
-49 -51 0
-50 -51 0
-52 -53 0
-52 -54 0
-53 -54 0
-55 -56 0
-55 -57 0
-56 -57 0
-58 -59 0
-58 -60 0
-59 -60 0
-1 -4 0
-1 -7 0
-1 -10 0
-1 -16 0
-1 -22 0
-1 -28 0
-1 -34 0
-1 -37 0
-4 -1 0
-4 -7 0
-4 -16 0
-4 -19 0
-4 -28 0
-4 -31 0
-4 -34 0
-4 -49 0
-7 -1 0
-7 -4 0
-7 -10 0
-7 -13 0
-7 -22 0
-7 -25 0
-7 -43 0
-7 -46 0
-7 -49 0
-10 -1 0
-10 -7 0
-10 -22 0
-10 -34 0
-10 -40 0
-10 -46 0
-10 -49 0
-13 -7 0
-13 -19 0
-13 -28 0
-13 -40 0
-16 -1 0
-16 -4 0
-16 -19 0
-16 -34 0
-16 -40 0
-16 -46 0
-16 -49 0
-19 -4 0
-19 -13 0
-19 -16 0
-19 -22 0
-19 -34 0
-19 -46 0
-19 -52 0
-22 -1 0
-22 -7 0
-22 -10 0
-22 -19 0
-22 -28 0
-22 -31 0
-22 -34 0
-22 -37 0
-25 -7 0
-25 -28 0
-25 -31 0
-25 -34 0
-25 -37 0
-25 -43 0
-25 -49 0
-28 -1 0
-28 -4 0
-28 -13 0
-28 -22 0
-28 -25 0
-28 -31 0
-28 -43 0
-31 -4 0
-31 -22 0
-31 -25 0
-31 -28 0
-31 -37 0
-31 -43 0
-31 -49 0
-34 -1 0
-34 -4 0
-34 -10 0
-34 -16 0
-34 -19 0
-34 -22 0
-37 -1 0
-37 -22 0
-37 -25 0
-37 -31 0
-37 -40 0
-37 -46 0
-37 -49 0
-40 -10 0
-40 -13 0
-40 -16 0
-40 -37 0
-40 -46 0
-40 -52 0
-43 -7 0
-43 -25 0
-43 -28 0
-43 -31 0
-43 -46 0
-43 -52 0
-43 -55 0
-46 -7 0
-46 -10 0
-46 -16 0
-46 -19 0
-46 -22 0
-46 -37 0
-46 -40 0
-49 -1 0
-49 -4 0
-49 -7 0
-49 -10 0
-49 -16 0
-49 -25 0
-49 -31 0
-52 -4 0
-52 -10 0
-52 -16 0
-52 -19 0
-52 -31 0
-52 -40 0
-52 -43 0
-55 -28 0
-55 -40 0
-55 -43 0
-58 -7 0
-58 -13 0
-58 -19 0
-58 -25 0
-58 -37 0
-2 -5 0
-2 -8 0
-2 -11 0
-2 -17 0
-2 -23 0
-2 -29 0
-2 -35 0
-2 -38 0
-5 -2 0
-5 -8 0
-5 -17 0
-5 -20 0
-5 -29 0
-5 -32 0
-5 -35 0
-5 -50 0
-8 -2 0
-8 -5 0
-8 -11 0
-8 -14 0
-8 -23 0
-8 -26 0
-8 -44 0
-8 -47 0
-8 -50 0
-11 -2 0
-11 -8 0
-11 -23 0
-11 -35 0
-11 -41 0
-11 -47 0
-11 -50 0
-14 -8 0
-14 -20 0
-14 -29 0
-14 -41 0
-17 -2 0
-17 -5 0
-17 -20 0
-17 -35 0
-17 -41 0
-17 -47 0
-17 -50 0
-20 -5 0
-20 -14 0
-20 -17 0
-20 -23 0
-20 -35 0
-20 -47 0
-20 -53 0
-23 -2 0
-23 -8 0
-23 -11 0
-23 -20 0
-23 -29 0
-23 -32 0
-23 -35 0
-23 -38 0
-26 -8 0
-26 -29 0
-26 -32 0
-26 -35 0
-26 -38 0
-26 -44 0
-26 -50 0
-29 -2 0
-29 -5 0
-29 -14 0
-29 -23 0
-29 -26 0
-29 -32 0
-29 -44 0
-32 -5 0
-32 -23 0
-32 -26 0
-32 -29 0
-32 -38 0
-32 -44 0
-32 -50 0
-35 -2 0
-35 -5 0
-35 -11 0
-35 -17 0
-35 -20 0
-35 -23 0
-38 -2 0
-38 -23 0
-38 -26 0
-38 -32 0
-38 -41 0
-38 -47 0
-38 -50 0
-41 -11 0
-41 -14 0
-41 -17 0
-41 -38 0
-41 -47 0
-41 -53 0
-44 -8 0
-44 -26 0
-44 -29 0
-44 -32 0
-44 -47 0
-44 -53 0
-44 -56 0
-47 -8 0
-47 -11 0
-47 -17 0
-47 -20 0
-47 -23 0
-47 -38 0
-47 -41 0
-50 -2 0
-50 -5 0
-50 -8 0
-50 -11 0
-50 -17 0
-50 -26 0
-50 -32 0
-53 -5 0
-53 -11 0
-53 -17 0
-53 -20 0
-53 -32 0
-53 -41 0
-53 -44 0
-56 -29 0
-56 -41 0
-56 -44 0
-59 -8 0
-59 -14 0
-59 -20 0
-59 -26 0
-59 -38 0
-3 -6 0
-3 -9 0
-3 -12 0
-3 -18 0
-3 -24 0
-3 -30 0
-3 -36 0
-3 -39 0
-6 -3 0
-6 -9 0
-6 -18 0
-6 -21 0
-6 -30 0
-6 -33 0
-6 -36 0
-6 -51 0
-9 -3 0
-9 -6 0
-9 -12 0
-9 -15 0
-9 -24 0
-9 -27 0
-9 -45 0
-9 -48 0
-9 -51 0
-12 -3 0
-12 -9 0
-12 -24 0
-12 -36 0
-12 -42 0
-12 -48 0
-12 -51 0
-15 -9 0
-15 -21 0
-15 -30 0
-15 -42 0
-18 -3 0
-18 -6 0
-18 -21 0
-18 -36 0
-18 -42 0
-18 -48 0
-18 -51 0
-21 -6 0
-21 -15 0
-21 -18 0
-21 -24 0
-21 -36 0
-21 -48 0
-21 -54 0
-24 -3 0
-24 -9 0
-24 -12 0
-24 -21 0
-24 -30 0
-24 -33 0
-24 -36 0
-24 -39 0
-27 -9 0
-27 -30 0
-27 -33 0
-27 -36 0
-27 -39 0
-27 -45 0
-27 -51 0
-30 -3 0
-30 -6 0
-30 -15 0
-30 -24 0
-30 -27 0
-30 -33 0
-30 -45 0
-33 -6 0
-33 -24 0
-33 -27 0
-33 -30 0
-33 -39 0
-33 -45 0
-33 -51 0
-36 -3 0
-36 -6 0
-36 -12 0
-36 -18 0
-36 -21 0
-36 -24 0
-39 -3 0
-39 -24 0
-39 -27 0
-39 -33 0
-39 -42 0
-39 -48 0
-39 -51 0
-42 -12 0
-42 -15 0
-42 -18 0
-42 -39 0
-42 -48 0
-42 -54 0
-45 -9 0
-45 -27 0
-45 -30 0
-45 -33 0
-45 -48 0
-45 -54 0
-45 -57 0
-48 -9 0
-48 -12 0
-48 -18 0
-48 -21 0
-48 -24 0
-48 -39 0
-48 -42 0
-51 -3 0
-51 -6 0
-51 -9 0
-51 -12 0
-51 -18 0
-51 -27 0
-51 -33 0
-54 -6 0
-54 -12 0
-54 -18 0
-54 -21 0
-54 -33 0
-54 -42 0
-54 -45 0
-57 -30 0
-57 -42 0
-57 -45 0
-60 -9 0
-60 -15 0
-60 -21 0
-60 -27 0
-60 -39 0
